65
1 0 3
2 1 3
3 0 2
3 1 5
4 2 5
5 1 4
5 4 3
6 2 3
6 3 2
7 0 2
7 1 4
7 3 3
7 4 2
7 6 1
8 1 4
8 2 3
8 3 1
8 5 2
8 7 1
9 0 4
9 3 4
9 5 5
9 6 2
9 7 2
10 1 4
10 3 1
10 4 4
10 7 3
10 9 4
11 1 5
11 3 4
11 6 1
12 0 3
12 1 2
12 2 3
12 4 1
12 6 5
12 8 4
12 10 4
12 11 1
13 1 4
13 3 5
13 4 1
13 11 4
13 12 4
14 1 3
14 2 2
14 4 3
14 5 2
14 8 3
14 9 3
14 10 3
14 11 2
14 12 1
15 1 3
15 3 3
15 6 5
15 8 5
15 9 2
15 10 2
15 11 3
15 12 3
15 13 5
16 0 3
16 1 1
16 2 3
16 3 1
16 6 3
16 8 1
16 9 3
16 14 5
17 2 4
17 6 3
17 7 4
17 8 3
17 9 1
17 13 5
17 15 1
17 16 5
18 0 5
18 1 5
18 3 2
18 4 2
18 5 3
18 7 1
18 10 5
18 11 2
18 12 5
18 15 3
18 17 2
19 0 2
19 1 4
19 2 2
19 4 3
19 5 1
19 7 5
19 8 4
19 13 4
19 14 2
19 15 2
19 16 4
19 17 2
19 18 1
20 1 3
20 4 4
20 5 3
20 6 4
20 10 2
20 11 2
20 13 1
20 16 2
20 17 4
21 4 5
21 5 2
21 7 3
21 8 2
21 9 2
21 10 5
21 11 1
21 12 2
21 13 4
21 15 2
21 20 5
22 1 4
22 3 3
22 4 1
22 8 4
22 10 2
22 12 5
22 15 2
22 17 2
22 18 1
22 19 3
22 20 5
22 21 3
23 0 5
23 1 4
23 2 1
23 3 1
23 6 2
23 8 5
23 9 4
23 10 4
23 11 3
23 12 2
23 13 1
23 14 1
23 16 1
23 20 1
23 21 4
24 1 2
24 2 4
24 4 5
24 5 3
24 6 3
24 8 3
24 10 4
24 11 5
24 13 1
24 18 2
24 19 2
24 20 1
24 22 1
24 23 2
25 0 5
25 1 5
25 2 2
25 5 2
25 8 2
25 10 3
25 11 1
25 12 1
25 13 4
25 16 3
25 18 2
25 22 1
25 23 5
26 0 5
26 1 4
26 2 3
26 3 5
26 7 5
26 8 5
26 9 4
26 11 3
26 13 2
26 19 4
26 20 2
26 23 4
26 24 5
26 25 3
27 2 3
27 12 1
27 13 4
27 15 5
27 17 2
27 18 5
27 19 1
27 24 5
27 26 2
28 0 4
28 3 2
28 4 2
28 6 5
28 7 2
28 8 1
28 9 4
28 11 5
28 12 3
28 14 3
28 15 4
28 16 4
28 17 1
28 18 5
28 23 4
28 24 5
28 26 1
28 27 4
29 1 1
29 2 1
29 6 3
29 7 3
29 9 1
29 10 5
29 11 5
29 13 4
29 17 4
29 20 4
29 22 3
29 24 2
29 25 2
29 26 3
29 28 1
30 0 2
30 1 5
30 6 1
30 10 1
30 11 1
30 14 4
30 15 1
30 16 3
30 18 1
30 19 3
30 26 4
30 28 1
30 29 2
31 0 2
31 2 5
31 3 2
31 5 5
31 9 4
31 11 4
31 13 1
31 14 2
31 15 2
31 16 2
31 17 5
31 23 2
31 26 5
31 27 5
31 29 5
31 30 4
32 2 1
32 6 3
32 7 4
32 12 5
32 14 2
32 15 4
32 16 1
32 19 3
32 20 1
32 21 2
32 22 1
32 25 5
32 26 4
32 27 1
32 29 2
32 30 2
33 2 3
33 4 4
33 6 2
33 7 5
33 8 1
33 10 5
33 13 2
33 15 4
33 16 5
33 17 3
33 20 2
33 21 3
33 22 1
33 23 4
33 26 3
33 27 4
33 29 1
33 32 4
34 3 4
34 4 1
34 9 4
34 12 4
34 13 2
34 14 1
34 15 2
34 17 5
34 18 3
34 20 2
34 21 1
34 22 4
34 23 3
34 26 2
34 28 5
34 29 2
34 30 5
34 32 2
34 33 2
35 2 2
35 3 5
35 6 4
35 8 5
35 10 5
35 11 5
35 12 2
35 13 5
35 15 4
35 16 5
35 18 5
35 19 3
35 21 1
35 22 2
35 24 1
35 27 1
35 30 5
35 31 1
35 33 3
35 34 3
36 0 2
36 1 4
36 3 3
36 7 4
36 8 3
36 9 3
36 10 4
36 11 2
36 12 4
36 13 2
36 18 4
36 19 2
36 20 3
36 21 2
36 22 4
36 23 3
36 24 5
36 26 4
36 28 1
36 29 3
36 30 4
36 34 4
37 0 5
37 2 3
37 4 2
37 5 3
37 6 3
37 8 4
37 10 5
37 11 1
37 12 1
37 16 3
37 17 3
37 22 4
37 25 1
37 27 2
37 28 4
37 30 1
37 31 2
37 36 2
38 0 3
38 1 2
38 7 2
38 8 3
38 9 1
38 10 3
38 12 2
38 13 2
38 15 2
38 16 4
38 17 3
38 18 3
38 20 4
38 21 1
38 25 4
38 29 3
38 30 4
38 31 3
38 32 2
39 2 5
39 4 5
39 7 4
39 8 3
39 9 3
39 10 2
39 11 5
39 12 2
39 14 3
39 15 3
39 16 2
39 19 5
39 20 3
39 22 3
39 25 1
39 26 3
39 27 2
39 28 5
39 31 2
39 32 3
39 33 3
39 34 5
39 35 4
39 36 4
39 38 1
40 0 1
40 1 3
40 2 4
40 5 3
40 9 3
40 10 4
40 16 4
40 17 3
40 18 5
40 19 1
40 20 5
40 21 1
40 23 2
40 25 5
40 27 3
40 28 4
40 30 5
40 32 1
40 33 4
40 35 2
41 0 4
41 4 5
41 5 2
41 8 1
41 10 2
41 13 3
41 23 4
41 24 2
41 30 3
41 31 5
41 32 2
41 33 3
41 35 2
41 37 4
41 38 3
41 40 1
42 0 2
42 2 4
42 5 5
42 6 3
42 9 4
42 10 5
42 11 1
42 13 2
42 17 3
42 18 3
42 19 5
42 21 4
42 22 2
42 23 2
42 25 1
42 27 3
42 28 2
42 32 5
42 35 4
42 36 3
42 41 1
43 1 4
43 2 1
43 3 4
43 4 3
43 8 5
43 12 5
43 14 1
43 19 3
43 20 4
43 21 4
43 22 2
43 24 2
43 25 1
43 28 3
43 30 3
43 33 5
43 34 1
43 35 3
43 36 3
43 42 1
44 0 3
44 1 3
44 3 3
44 7 2
44 9 3
44 11 3
44 15 1
44 17 1
44 19 2
44 21 3
44 25 5
44 27 5
44 28 2
44 30 5
44 31 2
44 35 2
44 37 1
44 38 1
45 0 3
45 2 2
45 3 3
45 5 1
45 7 1
45 13 1
45 14 4
45 16 5
45 19 4
45 24 1
45 27 3
45 29 2
45 31 4
45 32 2
45 33 5
45 34 1
45 35 1
45 40 1
45 42 4
45 44 5
46 0 1
46 3 2
46 5 3
46 7 1
46 8 1
46 10 4
46 11 4
46 12 5
46 14 1
46 15 4
46 21 3
46 24 5
46 27 1
46 29 4
46 33 1
46 36 1
46 37 2
46 38 2
46 39 4
46 40 2
46 42 5
46 44 4
47 0 5
47 6 4
47 9 5
47 10 2
47 11 1
47 12 4
47 13 1
47 14 4
47 16 4
47 20 3
47 21 1
47 23 2
47 24 5
47 26 1
47 27 1
47 29 2
47 31 5
47 36 4
47 38 3
47 39 3
47 43 1
47 46 5
48 1 4
48 2 4
48 6 1
48 8 2
48 13 2
48 14 3
48 18 4
48 19 4
48 20 1
48 22 3
48 24 2
48 30 1
48 31 1
48 33 4
48 37 4
48 39 3
48 40 3
48 41 1
48 42 4
48 43 2
48 44 3
48 46 2
49 4 3
49 5 1
49 9 1
49 10 2
49 11 1
49 12 1
49 18 3
49 19 3
49 21 2
49 23 3
49 24 5
49 28 5
49 30 4
49 31 5
49 33 3
49 36 2
49 39 4
49 41 5
49 43 1
50 0 5
50 1 4
50 2 5
50 3 3
50 6 5
50 8 2
50 11 3
50 13 5
50 14 5
50 15 1
50 16 2
50 17 4
50 22 2
50 26 2
50 27 5
50 28 4
50 30 5
50 32 5
50 33 2
50 35 3
50 36 4
50 37 4
50 39 4
50 40 1
50 42 3
50 43 5
50 45 2
50 46 1
50 48 4
50 49 4
51 4 1
51 6 2
51 7 1
51 12 1
51 13 1
51 16 3
51 17 5
51 20 4
51 21 2
51 22 2
51 27 4
51 28 4
51 30 1
51 32 1
51 36 4
51 37 3
51 39 4
51 42 5
51 43 3
51 49 1
52 0 4
52 1 1
52 4 4
52 8 5
52 10 4
52 18 4
52 19 3
52 20 3
52 21 4
52 23 1
52 25 5
52 30 1
52 31 5
52 33 4
52 34 1
52 35 1
52 36 3
52 37 4
52 40 5
52 41 1
52 43 3
52 45 3
52 46 5
52 50 3
52 51 2
53 0 4
53 1 1
53 2 3
53 3 1
53 4 4
53 7 3
53 8 5
53 13 4
53 14 2
53 15 1
53 17 3
53 19 1
53 21 4
53 25 1
53 26 5
53 27 2
53 31 2
53 33 3
53 34 2
53 35 5
53 37 5
53 39 2
53 41 5
53 42 1
53 46 1
53 48 1
53 50 2
53 52 5
54 3 2
54 4 2
54 8 5
54 9 1
54 12 4
54 14 5
54 15 2
54 19 2
54 20 4
54 21 3
54 22 1
54 24 1
54 25 2
54 29 2
54 34 4
54 35 5
54 36 5
54 37 5
54 38 2
54 40 4
54 41 2
54 44 3
54 45 4
54 47 5
54 51 1
54 53 4
55 0 2
55 2 1
55 3 3
55 7 4
55 9 3
55 10 5
55 13 4
55 14 2
55 15 1
55 17 3
55 21 3
55 23 1
55 25 4
55 27 3
55 29 5
55 34 1
55 37 3
55 39 2
55 40 2
55 41 2
55 43 2
55 45 5
55 46 3
55 49 5
55 51 3
55 52 1
56 0 1
56 3 5
56 4 5
56 9 3
56 10 2
56 12 2
56 14 3
56 15 5
56 16 1
56 21 4
56 22 2
56 23 4
56 24 5
56 25 1
56 27 4
56 28 4
56 30 5
56 31 1
56 32 2
56 34 5
56 35 2
56 37 2
56 39 3
56 40 4
56 41 2
56 43 2
56 44 1
56 45 1
56 46 2
56 47 4
56 48 2
56 49 3
56 51 4
56 55 4
57 1 4
57 6 5
57 10 5
57 11 2
57 14 5
57 16 2
57 17 4
57 18 2
57 19 2
57 21 4
57 25 2
57 28 5
57 30 1
57 31 5
57 33 4
57 35 1
57 36 2
57 40 2
57 42 1
57 45 3
57 47 5
57 48 4
57 52 3
57 54 5
57 55 3
58 1 3
58 2 2
58 3 5
58 4 1
58 7 4
58 11 1
58 12 5
58 16 5
58 17 4
58 18 3
58 21 4
58 25 5
58 26 4
58 27 3
58 29 4
58 30 4
58 32 3
58 33 3
58 34 4
58 35 1
58 36 2
58 37 1
58 38 2
58 39 4
58 40 1
58 44 5
58 45 3
58 46 3
58 47 3
58 49 1
58 51 2
58 54 3
58 56 2
58 57 3
59 3 4
59 7 5
59 9 3
59 11 5
59 13 5
59 14 5
59 20 5
59 22 5
59 27 3
59 28 3
59 30 2
59 32 5
59 33 5
59 35 1
59 39 2
59 41 3
59 42 3
59 44 5
59 48 1
59 50 1
59 53 3
59 55 1
59 56 3
59 57 2
60 2 3
60 3 1
60 7 2
60 8 5
60 11 3
60 12 1
60 13 1
60 14 5
60 15 5
60 16 1
60 17 3
60 18 4
60 21 4
60 23 4
60 25 2
60 26 5
60 27 5
60 28 3
60 30 3
60 31 5
60 32 1
60 35 4
60 38 5
60 43 4
60 44 5
60 46 5
60 51 2
60 52 5
60 53 1
60 54 4
60 56 2
61 2 1
61 5 4
61 6 2
61 7 4
61 9 2
61 10 3
61 11 5
61 12 2
61 15 5
61 16 2
61 17 4
61 19 2
61 21 3
61 23 3
61 30 3
61 31 1
61 32 2
61 33 5
61 36 2
61 38 3
61 41 3
61 42 3
61 43 2
61 44 1
61 45 2
61 50 4
61 51 4
61 52 4
61 53 5
61 54 5
61 58 2
61 60 4
62 0 1
62 1 2
62 3 3
62 4 1
62 5 5
62 7 2
62 8 5
62 9 5
62 10 2
62 12 5
62 14 2
62 18 3
62 22 2
62 23 3
62 25 5
62 30 4
62 31 5
62 33 4
62 34 1
62 37 4
62 40 1
62 42 4
62 43 2
62 45 5
62 47 4
62 49 5
62 51 1
62 52 5
62 53 3
62 54 2
62 55 4
62 56 2
62 59 1
62 61 4
63 0 3
63 2 3
63 4 1
63 6 4
63 7 1
63 8 2
63 10 1
63 12 1
63 13 5
63 14 2
63 15 2
63 19 1
63 21 1
63 31 4
63 33 1
63 35 2
63 42 4
63 43 5
63 44 5
63 45 3
63 46 3
63 50 3
63 51 1
63 52 5
63 53 5
63 55 4
63 56 5
63 57 1
63 58 4
64 0 3
64 1 4
64 4 2
64 7 5
64 8 4
64 9 5
64 10 3
64 11 5
64 12 5
64 13 2
64 14 3
64 18 1
64 19 1
64 21 3
64 22 2
64 25 4
64 27 3
64 28 3
64 34 1
64 36 5
64 37 5
64 38 5
64 40 2
64 43 4
64 45 3
64 46 4
64 47 1
64 48 2
64 52 2
64 53 3
64 54 2
64 55 1
64 57 4
64 62 3
